read_restart    initial_phi_0.4.conf
reset_timestep  0

units           lj
atom_style      hybrid sphere dipole
dimension       2

lattice         sq 1.0
region          box block 0.0 150.0 0.0 150.0 -0.25 0.25

mass            1 1.0
set             group all mass 1.0
set             group all diameter 1.0
set             group all dipole/random 98934 1e-10

pair_style      lj/cut 1.122462
pair_coeff      * * 1.0 1.0
pair_modify     shift yes mix arithmetic

neighbor        0.5 bin

fix             f_cons all store/force

fix             nve all nve/sphere update dipole
# Athermal: energy; cutoff. In LJ units, energy==temperature
fix             thermostat all langevin 0.27 0.27 1.0 35435847 omega yes zero yes athermal 1.0 0.5
variable        outname string "phi_0.4_Pe_90_Eath_1.0"

compute         dipole all property/atom mux muy muz mu

variable        p_x atom c_dipole[1]/c_dipole[4]
variable        p_y atom c_dipole[2]/c_dipole[4]
variable        p_z atom c_dipole[3]/c_dipole[4]

variable        f_prop equal 24.0
variable        f_prop_x atom v_f_prop*v_p_x
variable        f_prop_y atom v_f_prop*v_p_y
variable        f_prop_z atom v_f_prop*v_p_z
fix             f_propuls all addforce v_f_prop_x v_f_prop_y v_f_prop_z

fix             2d all enforce2d

#compute         msd_calc all msd
#variable        msd equal c_msd_calc[4]
#variable        tstep equal step
#fix             msd_out all print 100 "${tstep} ${msd}" append msd_rd.dat screen no

thermo_style    custom step temp pe press
thermo          1000

dump            1 all custom 5000 ${outname}.dump id type x y z fx fy fz v_f_prop_x v_f_prop_y v_f_prop_z f_f_cons[1] f_f_cons[2] f_f_cons[3] tqx tqy tqz
dump_modify     1 append yes buffer yes
restart         20000 ${outname}_n_*.conf

timestep        0.00005
run             2000000
